n_res = 4;
rcap = [17, 17, 103, 75];
rtype = [1, 1, 2, 2];
n_tasks = 16;
modes = [ {1, 2, 3}, {4, 5, 6}, {7, 8, 9}, {10, 11, 12}, {13, 14, 15}, {16, 17, 18}, {19, 20, 21}, {22, 23, 24}, {25, 26, 27}, {28, 29, 30}, {31, 32, 33}, {34, 35, 36}, {37, 38, 39}, {40, 41, 42}, {43, 44, 45}, {46, 47, 48} ];
succ = [ {5, 7, 8}, {4, 9, 11}, {5, 6}, {5}, {10, 12, 13}, {7, 8}, {9, 10, 11}, {9, 10, 11}, {12, 13, 14}, {14, 15, 16}, {12, 14, 16}, {15}, {15, 16}, {}, {}, {} ];
n_opt = 48;
dur = [1, 2, 6, 3, 3, 3, 6, 7, 10, 1, 3, 3, 3, 5, 9, 7, 7, 10, 1, 3, 10, 3, 5, 9, 5, 5, 9, 3, 4, 9, 3, 5, 7, 4, 6, 8, 6, 6, 7, 6, 7, 10, 5, 7, 8, 7, 8, 9];
rreq = [|  4,  3,  3,  7,  8,  5,  5,  3,  1,  5,  2,  2,  7,  7,  5,  7,  6,  6,  7,  7,  7,  9,  9,  7,  6,  6,  6, 10, 10,  9,  5,  5,  5,  9,  8,  7,  6,  7,  5,  8,  6,  4, 10, 10, 10,  9,  8,  7
        |  1,  1,  1,  6,  4,  3,  2,  1,  1,  8,  5,  6, 10, 10, 10,  9,  7,  5,  5,  5,  4,  8,  5,  4,  5,  4,  3, 10,  9,  8,  8,  6,  3,  9,  9,  9,  7,  7,  7,  7,  5,  3,  2,  2,  2,  6,  5,  3
        |  7,  6,  4,  6,  6,  7,  8,  7,  6,  5,  3,  5, 10, 10,  9,  8,  9,  6,  8,  5,  3, 10, 10, 10,  8,  9,  7,  9,  8,  6,  4,  3,  2, 10,  9,  9,  5,  4,  4,  9,  7,  5,  6,  6,  6,  9,  9,  9
        | 10,  8,  4,  6,  5,  5,  6,  5,  2,  7,  6,  5,  9,  5,  4,  9,  9,  7,  7,  4,  3,  8,  5,  4, 10, 10,  4,  8,  7,  5,  6,  6,  5,  5,  3,  2,  6,  6,  6,  3,  3,  2,  9,  5,  4,  2,  1,  1 |];
